asp/input/in_30_15_10_3.lp
#const n = 30.
#const k = 15.
#const h = 10.
tile(1,4,6).
tile(2,3,12).
tile(3,12,12).
tile(4,10,6).
tile(5,13,9).
tile(6,1,9).
tile(7,6,8).
tile(8,3,7).
tile(9,4,6).
tile(10,3,9).
tile(11,4,11).
tile(12,8,10).
tile(13,6,9).
tile(14,1,3).
tile(15,5,10).
tile(16,13,10).
tile(17,8,5).
tile(18,8,12).
tile(19,14,1).
tile(20,9,2).
tile(21,5,14).
tile(22,12,8).
tile(23,4,14).
tile(24,11,4).
tile(25,10,10).
tile(26,15,9).
tile(27,8,3).
tile(28,5,8).
tile(29,12,8).
tile(30,8,1).
