minizinc/input/in_30_15_10_3.dzn
n = 30;
k = 15;
h = 10;
tiles = array2d(1..n, 1..2,
[ 4,6
, 3,12
, 12,12
, 10,6
, 13,9
, 1,9
, 6,8
, 3,7
, 4,6
, 3,9
, 4,11
, 8,10
, 6,9
, 1,3
, 5,10
, 13,10
, 8,5
, 8,12
, 14,1
, 9,2
, 5,14
, 12,8
, 4,14
, 11,4
, 10,10
, 15,9
, 8,3
, 5,8
, 12,8
, 8,1
]);